\Problem name: 

Minimize
obj: 8 x0 -44 x1 + 14 x2 -15 x3 + 19 x4 -3 x5 + 14 x6 -26 x7 + 31 x8 + 26 x9
Subject To
cons0:  -10 x0 - x1 -27 x5 -47 x9 >= -50
cons1:  -41 x4 -28 x5 -41 x8 -19 x9 >= -78
cons2:  -44 x5 -42 x9 >= -141
cons3:  -4 x0 -16 x1 -36 x2 -5 x3 -41 x4 -25 x5 -49 x6 -35 x7 -41 x8 -22 x9
 >= -205
cons4:  -39 x0 -13 x2 -40 x5 -45 x8 -42 x9 >= -10
cons5:  - x0 -15 x2 -7 x3 -26 x4 -45 x7 -44 x8 -8 x9 >= -182
cons6:  -25 x2 -32 x4 -11 x7 -45 x9 >= -243
cons7:  -5 x0 -10 x1 -28 x2 -7 x3 -16 x4 -33 x6 -26 x7 -15 x8 -5 x9 >= -91
cons8:  -8 x0 -25 x1 -30 x2 -21 x4 -47 x5 -25 x6 -25 x7 - x9 >= -17
cons9:  -2 x0 -16 x1 -5 x2 -50 x4 -41 x6 -15 x7 -40 x8 -37 x9 >= -165
cons10:  -44 x1 -11 x3 -16 x4 -8 x5 -21 x7 -18 x8 -5 x9 >= -41
cons11:  -19 x0 -43 x1 -23 x2 -6 x3 -23 x4 -4 x7 -50 x8 -28 x9 >= -221
cons12:  -45 x1 -39 x2 -2 x3 -4 x4 -5 x5 -21 x6 -44 x7 -14 x9 >= -191
cons13:  -3 x0 -34 x1 -22 x2 -21 x3 -24 x4 -9 x5 -24 x6 -6 x7 -40 x8 -38 x9
 >= -221
cons14:  -42 x0 -17 x1 -34 x3 -13 x5 -8 x6 -44 x7 -16 x9 >= -133
cons15:  -31 x0 -28 x1 -24 x2 -27 x7 -44 x8 >= -48
cons16:  -25 x0 -20 x4 -31 x5 -33 x6 -35 x9 >= -190
cons17:  -12 x0 -6 x1 -22 x2 -50 x3 -48 x4 -8 x5 -40 x6 -23 x7 -42 x8 -43 x9
 >= -241
cons18:  -38 x0 -39 x1 -21 x3 -25 x4 -34 x5 -13 x6 -23 x7 -36 x8 -44 x9 >= -165
cons19:  -40 x0 -48 x3 -49 x4 -18 x6 -38 x7 -40 x8 -27 x9 >= -269
cons20:  40 x0 + 2 x1 + 33 x2 + 16 x3 -20 x4 + 30 x5 -18 x6 -14 x7 -36 x8 + 17 x9
 <= 0
Bounds
 0 <= x0 <= 1500
 0 <= x1 <= 1500
 0 <= x2 <= 1500
 0 <= x3 <= 1500
 0 <= x4 <= 1500
 0 <= x5 <= 1500
 0 <= x6 <= 1500
 0 <= x7 <= 1500
 0 <= x8 <= 1500
 0 <= x9 <= 1500
Integers
x0 x1 x2 x3 x4 x5 x6 x7 x8 x9 
End
